(set-info :smt-lib-version 2.6)
(set-logic QF_S)
(set-info :source |
Generated by: Joel Day, Thorsten Ehlers, Mitja Kulczynski, Federico Mora, Florin Manea, Dirk Nowotka, Danny Poulsen, Zhengyang Lu
Application: Test WOORPJE
Target solver: WOORPJE
Publications: Day, J. D., Ehlers, T., Kulczynski, M., Manea, F., Nowotka, D., & Poulsen, D. B. (2019). On solving word equations using SAT. In RP 2019
Description: Consisting of a system of 100 small random word equations with at most 6 letters, 10 variables and length 60.
|)
(set-info :license "https://creativecommons.org/licenses/by/4.0/")
(set-info :category "random")
(set-info :status unknown)

(declare-fun B () String)
(declare-fun A () String)
(declare-fun C () String)
(assert (= (str.++  "dcd" C "dcb")  (str.++  "dc" B "dabbdcb") ))
(assert (= (str.++  "aacbaddbd" A)  (str.++  "aacbaddbddcd" "") ))
(assert (= (str.++  "dcdcbcbccbbc" "")  (str.++  A "cbcbccbbc" "") ))
(assert (= (str.++  "ddb" A "ccdbdc")  (str.++  "ddb" A "ccdbdc") ))
(assert (= (str.++  "b" A "cbdaaaca")  (str.++  "bdcdcbdaaaca" "") ))
(assert (= (str.++  "bcadddab" B "a")  (str.++  "bcadddab" B "a") ))
(assert (= (str.++  "cdddcacbd" A)  (str.++  "cdddcacbddcd" "") ))
(assert (= (str.++  "daddcbb" B "cd")  (str.++  "daddcbb" B "cd") ))
(assert (= (str.++  "b" B "ddaaccda")  (str.++  "b" B "ddaaccda") ))
(assert (= (str.++  "dd" B "aadbbda")  (str.++  "dddbcaadbbda" "") ))
(assert (= (str.++  "cdcaa" A "acdc")  (str.++  "cdcaadcdacdc" "") ))
(assert (= (str.++  "cbacbaa" A "ad")  (str.++  "cbacbaadcdad" "") ))
(assert (= (str.++  "cdbaddcdcdcb" "")  (str.++  "cdbad" A "cdcb") ))
(assert (= (str.++  "ccbadabbd" B)  (str.++  "ccbadabbddbc" "") ))
(assert (= (str.++  "bdcddbdccbbc" "")  (str.++  "b" A "dbdccbbc") ))
(assert (= (str.++  "cbbddadcddcb" "")  (str.++  "cbbdda" A "dcb") ))
(assert (= (str.++  "d" C "ddccd")  (str.++  B "dabbddccd" "") ))
(assert (= (str.++  "da" B "cddacab")  (str.++  "dadbccddacab" "") ))
(assert (= (str.++  "d" B "bbabdaaa")  (str.++  "d" B "bbabdaaa") ))
(assert (= (str.++  "ccaaacbdd" B)  (str.++  "ccaaacbdddbc" "") ))
(check-sat)

(exit)
